(set-info :smt-lib-version 2.6)
(set-logic QF_LIA)
(set-info :category "industrial")
(set-info :status sat)
(declare-fun x0 () Int)
(declare-fun x1 () Int)
(declare-fun x10 () Int)
(declare-fun x11 () Int)
(declare-fun x12 () Int)
(declare-fun x13 () Int)
(declare-fun x14 () Int)
(declare-fun x2 () Int)
(declare-fun x3 () Int)
(declare-fun x4 () Int)
(declare-fun x5 () Int)
(declare-fun x6 () Int)
(declare-fun x7 () Int)
(declare-fun x8 () Int)
(declare-fun x9 () Int)
(assert (let ((?v_1 (* 0 x1)) (?v_2 (* 0 x13)) (?v_3 (* 0 x2)) (?v_4 (* 0 x9)) (?v_12 (* 0 x14)) (?v_6 (* 0 x3)) (?v_11 (* 1 x5)) (?v_7 (* 0 x6)) (?v_8 (* 0 x8)) (?v_22 (* 0 x12)) (?v_30 (* 1 x4)) (?v_36 (* 1 x7)) (?v_27 (* 0 x11)) (?v_34 (* 1 x14)) (?v_13 (* 0 x4)) (?v_14 (* 1 x8)) (?v_25 (* 1 x9)) (?v_20 (* 1 x2)) (?v_23 (* 1 x3)) (?v_17 (* 0 x0)) (?v_18 (* 0 x7)) (?v_16 (* 1 x13)) (?v_28 (* 0 x10)) (?v_24 (* 0 x5)) (?v_32 (* 1 x0)) (?v_29 (* 1 x11)) (?v_35 (* 1 x6)) (?v_19 (* 1 x10)) (?v_40 (* 1 x1))) (let ((?v_38 (+ ?v_4 ?v_19)) (?v_21 (* (- 1) x11)) (?v_0 (* (- 1) x12)) (?v_5 (* (- 1) x14)) (?v_37 (* (- 1) x3)) (?v_10 (* (- 1) x7)) (?v_33 (* (- 1) x0)) (?v_9 (* (- 1) x1)) (?v_15 (* (- 1) x9)) (?v_42 (* (- 1) x13)) (?v_26 (* (- 1) x6)) (?v_31 (* (- 1) x8)) (?v_39 (* (- 1) x4)) (?v_41 (* (- 1) x2))) (and (<= (+ ?v_1 (+ (* (- 2) x10) (+ ?v_21 (+ ?v_0 (+ ?v_5 (+ ?v_37 (+ ?v_10 (+ ?v_2 (+ ?v_3 ?v_4))))))))) (- 1)) (<= (+ ?v_33 (+ (* 2 x11) (+ ?v_0 (+ ?v_1 (+ ?v_2 (+ ?v_12 (+ ?v_3 (+ ?v_6 (+ ?v_11 (+ ?v_7 (+ ?v_8 ?v_4))))))))))) 0) (<= (+ ?v_9 (+ ?v_5 (+ ?v_22 (+ ?v_3 (+ ?v_6 (+ ?v_30 (+ ?v_7 (+ ?v_36 (+ ?v_8 ?v_15))))))))) 1) (<= (+ ?v_9 (+ ?v_27 (+ ?v_42 (+ ?v_34 (+ ?v_10 (+ ?v_6 (+ ?v_13 (+ ?v_11 (+ ?v_7 (+ ?v_14 ?v_25)))))))))) 0) (<= (+ (* (- 2) x11) (+ ?v_12 (+ ?v_13 (+ ?v_20 (+ ?v_23 (+ (* 2 x5) (+ ?v_26 (+ (* 2 x7) ?v_14)))))))) 1) (<= (+ ?v_17 (+ ?v_6 (+ ?v_7 (+ ?v_18 (+ ?v_16 (+ ?v_11 (+ ?v_14 (+ ?v_15 ?v_28)))))))) 0) (<= (+ (* (- 2) x1) (+ ?v_0 (+ ?v_13 (+ ?v_24 (+ ?v_31 (+ ?v_32 (+ ?v_29 (+ ?v_16 (+ ?v_35 (+ ?v_15 ?v_19)))))))))) 1) (<= (+ (* (- 1) x5) (+ ?v_17 (+ ?v_12 (+ ?v_13 (+ ?v_18 (+ ?v_19 (+ ?v_20 (+ ?v_14 (* 2 x13))))))))) (- 1)) (<= (+ ?v_9 (+ ?v_21 (+ ?v_39 (+ ?v_17 (+ ?v_22 (+ ?v_2 (+ ?v_3 (+ ?v_23 (+ ?v_24 (+ (* 2 x8) ?v_25)))))))))) (- 1)) (<= (+ (* (- 2) x12) (+ ?v_9 (+ ?v_26 (+ ?v_17 (+ (* (- 1) x10) (+ ?v_27 (+ ?v_13 (+ ?v_18 (* 3 x8))))))))) 0) (<= (+ ?v_10 (+ ?v_17 (+ ?v_1 (+ ?v_28 (+ ?v_29 (+ ?v_2 (+ ?v_3 (+ ?v_6 (+ ?v_30 (+ ?v_7 ?v_25)))))))))) 1) (<= (+ ?v_9 (+ ?v_26 (+ ?v_31 (+ ?v_32 (+ ?v_28 (+ ?v_12 (+ ?v_18 (+ ?v_16 (+ ?v_20 (+ ?v_23 ?v_4)))))))))) 0) (<= (+ ?v_0 (+ ?v_41 (+ (* (- 2) x5) (+ ?v_26 (+ ?v_1 (+ ?v_32 (+ ?v_28 (+ ?v_6 (+ ?v_13 (+ ?v_16 (+ ?v_14 ?v_4))))))))))) (- 1)) (<= (+ ?v_33 (+ ?v_28 (+ ?v_6 (+ ?v_24 (+ ?v_16 (+ ?v_34 (+ ?v_20 (+ ?v_35 (+ ?v_36 ?v_4))))))))) 1) (<= (+ ?v_9 (+ ?v_21 (+ ?v_5 (+ ?v_37 (+ ?v_22 (+ ?v_26 (+ ?v_2 (+ ?v_20 ?v_4)))))))) 0) (<= (+ ?v_21 (+ ?v_40 (+ ?v_2 (+ ?v_13 (+ ?v_24 (+ ?v_35 (+ ?v_36 (+ ?v_8 ?v_38)))))))) 0) (<= (+ ?v_0 (+ ?v_5 (+ ?v_17 (+ ?v_27 (+ ?v_13 (+ ?v_18 (+ ?v_35 (+ ?v_8 (+ ?v_16 ?v_38))))))))) 0) (<= (+ (* (- 2) x3) (+ ?v_39 (+ ?v_17 (+ ?v_27 (+ ?v_22 (+ ?v_34 (+ ?v_24 (+ ?v_40 ?v_38)))))))) (- 1)) (<= (+ ?v_21 (+ ?v_5 (+ ?v_41 (+ ?v_37 (+ (* 4 x1) (+ ?v_28 (+ ?v_7 ?v_14))))))) 1) (<= (+ ?v_22 (+ (* (- 2) x6) (+ ?v_40 (+ ?v_42 (+ ?v_6 (+ ?v_13 (+ ?v_20 (+ ?v_11 ?v_14)))))))) 1)))))
(check-sat)
(exit)
